p tw 40 84
0 1
0 11
0 31
0 30
0 38
0 28
1 15
1 5
1 24
2 3
2 17
2 21
2 4
2 34
3 34
3 11
3 14
4 5
4 31
4 24
4 9
4 37
5 19
5 16
5 18
5 14
6 7
6 12
6 9
7 10
7 26
7 18
7 13
8 9
8 27
8 17
8 33
9 17
9 30
9 33
9 20
10 21
10 20
11 17
11 25
11 23
11 28
12 19
12 13
12 37
13 14
14 22
14 30
14 31
14 21
15 16
15 20
16 17
16 18
16 23
17 23
17 24
18 24
18 27
19 36
20 21
20 24
21 35
22 30
22 36
23 37
23 27
25 26
25 28
25 31
25 39
25 38
27 37
29 30
30 38
31 34
31 33
32 33
35 37
